proyfinal/src/viki/013/andrea/andrea-localstore/experimentInOfficeAgust.take6/worker_1/ed235921-33a2-4caa-ae9f-4d2c4f9559bb.als.cnf.out
Reading from standard input... Use '--help' for help.
============================[ Problem Statistics ]=============================
|                                                                             |
|  Number of variables:         87638                                         |
|  Number of clauses:          161767                                         |
|  Parse time:                   0.04 s                                       |
|                                                                             |
============================[ Search Statistics ]==============================
| Conflicts |          ORIGINAL         |          LEARNT          | Progress |
|           |    Vars  Clauses Literals |    Limit  Clauses Lit/Cl |          |
===============================================================================
|       100 |   62057   103966   259844 |    38120       99     41 | 29.189 % |
|       250 |   62057   103922   259754 |    41932      249     52 | 29.189 % |
|       475 |   62057   103922   259754 |    46126      474     64 | 29.189 % |
|       812 |   62057   103922   259754 |    50738      811     72 | 29.189 % |
|      1318 |   62057   103922   259754 |    55812     1317     68 | 29.189 % |
|      2077 |   62057   103922   259754 |    61394     2076     64 | 29.189 % |
|      3216 |   62057   103922   259754 |    67533     3215     65 | 29.190 % |
|      4924 |   62057   103922   259754 |    74286     4923     61 | 29.189 % |
|      7486 |   62057   103922   259754 |    81715     7485     63 | 29.189 % |
===============================================================================
restarts              : 40
conflicts             : 9374           (6894 /sec)
decisions             : 30220          (0.00 % random) (22225 /sec)
propagations          : 14822679       (10901393 /sec)
conflict literals     : 588247         (61.65 % deleted)
Memory used           : 27.06 MB
CPU time              : 1.3597 s

UNSATISFIABLE
